StudentsNr = 10;
InstructorsNr = 48;
DaysNr = 1;
SlotsPerDay = 60;
AvailabilitySlotsLenght = 6;
RoomNr = 2;
ProgrammNr = 2;
DegreeNr = 3;
RolesNr = 2;
CoursesNr = 5;
InstructorsProgramm = [{1}, {1}, {1, 2}, {2}, {1}, {1}, {1}, {1, 2}, {1, 2}, {1, 2}, {2}, {1}, {1}, {1}, {1}, {1, 2}, {1, 2}, {2}, {1}, {1}, {2}, {1, 2}, {2}, {2}, {2}, {2}, {2}, {2}, {1}, {2}, {1, 2}, {2}, {2}, {2}, {2}, {2}, {1}, {2}, {1, 2}, {1}, {1, 2}, {1, 2}, {2}, {1}, {1}, {1}, {1}, {1}];
InstructorRolesPerProgramm = [|{20, 31, 39, 44, 45, 46}, {1, 3, 6, 7, 12, 13, 16, 17, 20, 29, 31, 39, 40, 41, 42, 44, 47}|{4, 18, 21, 23, 24, 26, 27, 30, 31, 38, 39}, {3, 4, 11, 16, 17, 18, 25, 26, 27, 31, 32, 34, 35, 39, 41, 42}|];
InstructorsAvailability = [|1, 1, 1, 1, 1, 1, 1, 1, 1, 1, |0, 1, 1, 0, 1, 0, 0, 0, 0, 1, |1, 0, 0, 0, 0, 0, 0, 0, 1, 0, |1, 1, 0, 0, 1, 0, 1, 0, 0, 1, |0, 1, 1, 1, 1, 1, 1, 1, 1, 1, |1, 1, 1, 1, 1, 1, 1, 1, 1, 1, |0, 1, 1, 1, 1, 0, 0, 1, 1, 1, |0, 1, 1, 1, 0, 1, 1, 1, 1, 1, |1, 1, 1, 1, 1, 1, 1, 0, 0, 1, |0, 0, 1, 1, 1, 1, 1, 1, 0, 1, |1, 0, 1, 0, 1, 1, 1, 1, 1, 0, |0, 0, 1, 1, 0, 0, 0, 1, 1, 0, |1, 1, 1, 0, 1, 1, 0, 0, 1, 0, |1, 0, 0, 1, 1, 1, 1, 0, 1, 0, |0, 1, 1, 1, 1, 1, 1, 1, 1, 1, |1, 1, 1, 1, 1, 0, 1, 1, 1, 1, |0, 0, 1, 0, 0, 1, 1, 1, 1, 1, |0, 1, 1, 1, 1, 0, 0, 1, 1, 1, |0, 0, 0, 1, 1, 1, 1, 1, 1, 1, |0, 0, 1, 1, 1, 1, 1, 1, 1, 1, |0, 1, 1, 0, 1, 0, 0, 1, 1, 1, |1, 0, 1, 1, 1, 1, 1, 1, 0, 0, |0, 1, 1, 1, 1, 0, 1, 1, 1, 1, |0, 1, 0, 1, 1, 1, 1, 1, 1, 0, |0, 1, 1, 1, 0, 0, 0, 0, 0, 1, |1, 1, 1, 1, 1, 1, 1, 1, 1, 1, |1, 1, 1, 0, 1, 1, 1, 0, 0, 1, |0, 1, 1, 1, 0, 1, 1, 0, 1, 1, |0, 1, 1, 0, 1, 1, 1, 1, 1, 1, |1, 1, 1, 1, 0, 1, 1, 1, 1, 1, |0, 1, 1, 1, 1, 1, 1, 1, 1, 1, |0, 0, 1, 1, 0, 1, 1, 1, 1, 0, |0, 1, 1, 0, 0, 1, 1, 1, 0, 0, |1, 1, 1, 1, 1, 1, 0, 0, 1, 1, |0, 0, 1, 1, 0, 1, 1, 1, 1, 0, |1, 1, 1, 1, 1, 1, 1, 0, 1, 0, |0, 1, 1, 1, 1, 0, 1, 1, 1, 1, |1, 1, 1, 1, 1, 1, 1, 1, 1, 1, |0, 1, 1, 1, 1, 1, 1, 1, 0, 1, |1, 1, 1, 1, 1, 1, 1, 0, 1, 0, |1, 1, 1, 0, 1, 1, 1, 0, 1, 1, |1, 1, 1, 0, 0, 0, 0, 1, 1, 1, |0, 0, 0, 1, 1, 1, 1, 1, 0, 1, |1, 1, 1, 1, 0, 0, 1, 1, 1, 1, |0, 0, 1, 1, 1, 0, 1, 1, 1, 1, |1, 1, 1, 1, 1, 1, 1, 1, 1, 1, |0, 1, 1, 1, 0, 0, 1, 1, 1, 1, |1, 1, 1, 1, 1, 1, 1, 1, 1, 1|];
StudentsProgramm = [1, 1, 1, 2, 1, 1, 1, 2, 1, 2];
StudentsDegree = [2, 1, 3, 2, 3, 2, 3, 1, 3, 3];
StudentsSupervisorId = [40, 9, 22, 16, 48, 46, 10, 30, 44, 10];
StudentsCourseIds = [{1, 2}, {4}, {1, 2, 3, 4, 5}, {1, 2}, {1, 2, 3, 4, 5}, {1, 5}, {1, 2, 3, 4, 5}, {2}, {1, 2, 3, 4, 5}, {1, 2, 3, 4, 5}];
StudentsAvailability = [|1, 1, 0, 1, 1, 1, 1, 1, 1, 1, |1, 1, 1, 1, 1, 1, 1, 1, 1, 1, |0, 0, 0, 1, 1, 1, 0, 1, 1, 1, |0, 0, 1, 1, 1, 1, 1, 1, 1, 1, |1, 1, 1, 1, 1, 1, 1, 0, 0, 1, |0, 0, 1, 0, 1, 1, 1, 1, 1, 1, |1, 1, 1, 0, 1, 0, 0, 0, 0, 0, |1, 1, 1, 1, 1, 1, 1, 1, 1, 1, |0, 1, 1, 1, 1, 1, 0, 1, 1, 1, |0, 1, 1, 1, 1, 1, 1, 1, 1, 1|];
TheoryticalMinCard = [0, 0, 0, 0, 0, 0, 0, 0, 0, 1];
CoursesInstructorIds = [{1, 12, 15, 16, 18, 21, 26, 32, 34, 47}, {2, 3, 6, 9, 10, 11, 12, 14, 15, 19, 22, 23, 26, 27, 28, 31, 34, 35, 36, 37, 40, 41, 42, 44, 45, 46}, {6, 37}, {1, 5, 7, 8, 9, 11, 12, 13, 14, 16, 18, 19, 20, 26, 27, 30, 32, 33, 34, 41, 42, 43, 44, 47, 48}, {4, 5, 9, 10, 18, 19, 23, 28, 29, 33, 34, 37, 40}];
RolesDemands = [6, 3];
RolesContinuity = [1];
ExamLen = [1, 2, 1, 1, 1, 1, 1, 2, 1, 1];
LunchTsMinLen = 0;
LunchStarts = [19..34];
SupervisorAvailable = 0;
OptimalLunchLenght = [0, 0];
OptimalStartTs = [2, 0];
OptimalFinishTs = [0, 60];
MinimizeRooms = 500;
RolesSoftContinuity = [|1, 2|4, 3|];
SameDegreeInRoom = 0;
Mergeability = 0;
